db/data/939010114293813929185698368224519111.z3.out
-------------------
2500.162395189
